GLPSOL: GLPK LP/MIP Solver, v4.55
Parameter(s) specified in the command line:
 -m tmp.mod
Reading model section from tmp.mod...
Reading data section from tmp.mod...
2267 lines were read
Generating obj...
Generating kirhoff...
Generating init_charge...
Generating batt_size...
Model has been successfully generated
GLPK Simplex Optimizer, v4.55
2218 rows, 3804 columns, 8166 non-zeros
Preprocessing...
1766 rows, 3691 columns, 7919 non-zeros
Scaling...
 A: min|aij| =  1.000e+00  max|aij| =  1.000e+00  ratio =  1.000e+00
Problem data seem to be well scaled
Constructing initial basis...
Size of triangular part is 1526
      0: obj =   0.000000000e+00  infeas =  5.340e+02 (240)
    500: obj =   4.500000000e+01  infeas =  5.400e+01 (142)
*   679: obj =   6.000000000e+01  infeas =  0.000e+00 (117)
*   951: obj =   3.300000000e+01  infeas =  0.000e+00 (106)
OPTIMAL LP SOLUTION FOUND
Time used:   0.1 secs
Memory used: 7.4 Mb (7774111 bytes)
#OUTPUT:
33
-9 -5 -6 -4 0 -4 -6 0 -1 0 1 -2 -3 -7 0 -8 -2 0 0 0 0 0 3 0 1 0 0 0 -2 0 0 0 -2 0 0 0 0 -4 -3 0 0 0 -8 -1 -1 0 0 -2 0 -9 0 0 0 0 -3 0 0 0 0 -1 0 0 0 0 0 0 -3 0 0 0 0 0 0 -1 -1 0 3 0 0 0 0 0 1 1 -1 0 0 0 0 2 0 0 0 0 0 0 0 0 0 0 0 0 0 0 0 0 0 0 0 -9 0 0 0 0 -3 1 0 0 0 0 1 0 0 0 0 -1 0 0 0 0 0 -9 0 0 0 0 0 0 0 0 1 0 0 0 0 0 0 0 0 0 0 0 0 0 0 0 -1 0 0 0 0 0 0 0 0 0 0 0 0 0 0 0 0 0 0 0 0 0 0 0 0 0 0 0 0 0 0 0 0 0 0 0 0 0 0 0 0 0 0 0 -4 -1 0 0 0 -1 0 0 0 1 -1 0 0 0 0 -1 1 0 0 0 0 0 0 0 0 1 0 1 -3 3 0 0 0 0 0 0 0 0 0 1 -1 0 0 0 0 0 0 0 0 0 -2 1 1 0 0 0 0 0 0 0 0 0 0 0 0 0 0 0 0 0 0 0 0 0 0 
-20 -5 -14 -14 -7 -6 -9 2 -13 -1 -5 -14 -1 -8 2 -8 4 0 0 1 0 0 3 0 2 0 0 0 1 0 0 0 -2 0 -1 0 0 -10 -3 0 0 0 -8 -1 1 0 0 0 0 0 0 0 0 -19 -3 6 2 0 0 0 0 0 0 0 0 0 1 0 0 0 0 0 0 -1 -1 0 3 -1 0 0 0 0 0 -1 -2 0 1 -2 0 0 0 0 0 0 0 0 0 0 0 1 0 0 1 0 0 0 0 0 0 0 1 0 0 0 1 0 0 0 0 0 1 0 0 0 0 0 0 0 0 1 0 0 0 0 -2 0 0 0 0 0 1 -1 0 0 0 0 0 0 0 0 0 0 0 0 0 0 0 0 0 0 0 0 0 -1 0 0 0 0 0 0 -1 0 0 0 1 0 0 -16 0 0 0 0 0 0 0 0 0 0 0 0 -1 0 0 0 0 -1 0 -6 -1 0 -1 1 2 0 1 0 0 0 0 3 -2 0 0 0 0 -1 0 0 -1 0 3 2 0 1 0 0 0 0 -3 3 0 1 0 0 0 0 0 1 0 0 -1 0 0 0 0 0 0 0 0 1 -1 1 0 0 0 0 0 0 0 0 0 0 0 0 0 0 0 0 0 0 0 0 0 0 0 
-12 -2 -1 -1 -1 -7 -1 -2 -1 0 -4 -1 0 0 -2 0 -1 0 0 0 0 0 -3 0 -1 0 0 0 -1 0 0 0 0 0 0 0 0 -5 -2 0 0 0 0 0 0 0 1 -2 0 0 0 0 0 0 -2 0 -2 0 0 0 0 1 0 0 0 0 -2 0 0 0 0 0 0 0 -1 0 -5 0 0 0 0 0 0 1 0 0 1 0 0 0 0 0 0 0 0 0 0 0 0 -9 0 0 1 0 0 0 0 0 0 0 0 0 0 0 -2 0 0 0 0 0 0 0 0 0 -2 -2 0 0 0 3 0 0 2 0 0 -1 0 0 0 0 0 0 0 0 0 0 0 0 0 0 0 2 0 0 0 0 0 2 0 0 0 0 0 0 0 0 0 0 0 0 0 0 0 0 0 0 0 0 0 0 0 0 0 0 0 0 0 0 0 0 0 0 0 0 0 0 0 0 -1 0 -4 -1 0 0 0 0 0 0 0 0 0 0 0 0 1 0 2 0 -3 0 3 0 1 0 0 0 0 0 -2 0 0 0 0 0 0 0 0 0 0 1 -1 0 0 0 0 0 0 0 0 0 0 0 0 0 0 0 0 0 0 0 0 0 0 0 0 0 0 0 0 0 0 0 0 0 0 
-20 -4 -14 0 -7 -11 -1 0 1 1 -8 -2 -3 0 0 0 -1 0 0 0 0 0 0 0 0 0 -3 0 -2 -1 0 0 0 0 1 1 0 4 -1 0 0 -1 0 0 -14 0 -14 2 0 -14 0 1 0 0 -1 -6 0 -1 0 0 2 -5 0 0 0 0 1 -1 2 0 0 0 0 0 -1 0 0 0 0 0 0 -2 0 1 0 0 1 0 0 0 0 0 0 0 0 0 0 0 0 -1 0 0 1 0 0 0 0 0 0 -14 0 1 0 0 1 0 0 0 0 0 0 0 0 0 -1 0 1 0 0 -1 0 -14 0 0 0 0 0 -11 0 0 0 -1 0 0 0 0 0 0 0 0 0 0 0 3 0 0 0 0 0 0 0 0 0 1 0 0 0 -2 0 0 0 0 0 0 0 0 0 0 0 -2 0 0 0 0 0 0 0 0 0 0 1 0 0 0 0 1 1 -6 -1 0 -1 -1 1 -1 0 0 0 0 0 -1 0 0 -1 0 1 0 0 -1 1 0 3 0 0 1 0 0 0 0 -1 1 0 -1 0 2 0 0 0 0 0 0 0 -2 0 0 2 0 0 0 0 -1 -3 0 3 0 0 0 0 0 0 0 0 0 0 0 0 0 0 0 0 0 0 0 0 0 0 
-7 0 -1 -1 0 -4 0 -1 -1 0 -3 0 0 0 -1 0 0 0 0 0 0 0 -3 0 0 0 0 0 0 0 0 0 0 0 0 0 0 0 0 0 0 0 0 0 0 0 0 0 0 -15 0 0 -15 0 0 0 0 0 0 0 0 0 0 0 0 0 -1 0 0 0 0 0 0 0 0 0 -3 0 0 0 0 0 0 1 0 0 0 0 0 0 0 0 0 0 0 0 0 0 0 -2 0 0 0 0 0 0 0 0 0 0 0 0 0 0 -1 0 0 0 0 0 0 0 0 0 0 0 0 0 0 -2 0 0 0 0 3 0 0 0 0 0 0 0 0 0 0 0 0 0 0 0 0 0 0 0 0 0 0 0 0 0 0 0 0 0 0 0 0 0 0 0 0 0 0 0 0 0 0 0 0 0 0 0 0 0 0 -17 0 0 0 0 0 0 0 0 0 0 0 0 0 0 0 -1 0 0 0 0 0 0 0 0 0 0 0 0 0 0 0 0 2 0 -3 -3 0 0 0 0 0 0 0 0 0 0 0 0 0 0 0 0 0 0 0 0 0 0 0 0 0 0 0 0 0 0 0 0 0 0 0 0 0 0 0 0 0 0 0 0 0 0 0 0 0 0 0 0 0 
-2 -3 0 0 0 0 0 0 0 -1 -2 -1 0 0 0 0 -1 0 0 0 0 0 -1 0 1 0 0 0 -1 0 0 0 0 0 -1 0 0 0 -3 0 0 0 0 0 0 0 0 -2 0 -1 0 0 0 0 -3 0 1 0 0 0 0 0 0 0 0 0 -3 0 0 0 0 0 0 0 0 0 -1 0 0 0 0 0 0 1 0 0 1 0 0 0 0 0 0 0 0 0 0 0 0 -5 0 0 1 0 0 0 0 0 0 -1 0 0 0 0 -3 0 0 0 0 0 0 0 0 0 0 -1 0 0 0 -5 0 -1 0 0 0 0 0 0 0 0 0 0 0 0 0 0 0 0 0 0 0 0 0 0 0 0 0 0 0 0 0 0 0 -1 0 0 0 0 0 0 0 0 0 0 0 0 0 0 0 0 0 0 0 0 0 0 0 0 0 0 0 0 0 0 0 -1 0 0 0 0 -3 -1 0 0 0 0 0 0 0 0 0 0 0 0 0 0 1 0 5 0 1 0 0 0 0 0 0 0 -3 3 0 1 0 0 0 0 0 0 0 0 0 0 0 0 0 0 0 0 0 0 0 0 0 0 0 0 0 0 0 0 0 0 0 0 0 0 0 0 0 0 0 0 0 0 0 
#OUTPUT END
Model has been successfully processed
